language Essence 1.3

letting blksize_delta be
        function(1 --> 10, 2 --> 8, 3 --> 8, 4 --> 8, 5 --> 8, 6 --> 8, 7 --> 8, 8 --> 8, 9 --> 8, 10 --> 8, 11 --> 8,
                 12 --> 8, 13 --> 8, 14 --> 8, 15 --> 8, 16 --> 8, 17 --> 9, 18 --> 8, 19 --> 10, 20 --> 8, 21 --> 8,
                 22 --> 8, 23 --> 8, 24 --> 8, 25 --> 8, 26 --> 8, 27 --> 8, 28 --> 8, 29 --> 8, 30 --> 9, 31 --> 8,
                 32 --> 8, 33 --> 8, 34 --> 10, 35 --> 8, 36 --> 8, 37 --> 8)
letting maxcars be
        function(1 --> 9, 2 --> 9, 3 --> 9, 4 --> 9, 5 --> 9, 6 --> 10, 7 --> 9, 8 --> 9, 9 --> 9, 10 --> 9, 11 --> 9,
                 12 --> 9, 13 --> 9, 14 --> 9, 15 --> 10, 16 --> 9, 17 --> 9, 18 --> 9, 19 --> 9, 20 --> 9, 21 --> 9,
                 22 --> 9, 23 --> 9, 24 --> 9, 25 --> 9, 26 --> 9, 27 --> 9, 28 --> 10, 29 --> 9, 30 --> 9, 31 --> 9,
                 32 --> 10, 33 --> 9, 34 --> 9, 35 --> 9, 36 --> 9, 37 --> 9)
letting n_cars be 217
letting n_classes be 18
letting n_options be 37
letting quantity be
        function(1 --> 12, 2 --> 12, 3 --> 12, 4 --> 13, 5 --> 12, 6 --> 12, 7 --> 12, 8 --> 12, 9 --> 12, 10 --> 12,
                 11 --> 12, 12 --> 12, 13 --> 12, 14 --> 12, 15 --> 12, 16 --> 12, 17 --> 12, 18 --> 12)
letting usage be
        relation((1, 13), (1, 16), (1, 32), (1, 33), (2, 12), (2, 25), (2, 27), (2, 29), (3, 2), (3, 3), (3, 7),
                 (3, 17), (3, 19), (3, 27), (3, 35), (4, 6), (4, 9), (4, 11), (4, 33), (4, 37), (5, 11), (6, 6),
                 (6, 13), (6, 33), (7, 9), (7, 11), (7, 22), (7, 34), (8, 7), (8, 8), (8, 20), (8, 29), (8, 30), (9, 5),
                 (9, 17), (9, 20), (9, 35), (10, 4), (10, 7), (10, 8), (10, 9), (10, 15), (10, 24), (11, 10), (11, 13),
                 (12, 11), (12, 20), (12, 23), (12, 33), (13, 3), (13, 13), (13, 30), (13, 31), (14, 11), (14, 18),
                 (14, 22), (14, 26), (14, 37), (15, 1), (15, 12), (15, 16), (15, 21), (15, 22), (15, 28), (15, 36),
                 (16, 2), (16, 12), (16, 14), (16, 19), (16, 30), (17, 8), (17, 10), (17, 12), (17, 20), (17, 23),
                 (17, 34), (18, 23), (18, 24), (18, 34))
$ Visualisation for usage
$  1 13
$  1 16
$  1 32
$  1 33
$  2 12
$  2 25
$  2 27
$  2 29
$  3  2
$  3  3
$  3  7
$  3 17
$  3 19
$  3 27
$  3 35
$  4  6
$  4  9
$  4 11
$  4 33
$  4 37
$  5 11
$  6  6
$  6 13
$  6 33
$  7  9
$  7 11
$  7 22
$  7 34
$  8  7
$  8  8
$  8 20
$  8 29
$  8 30
$  9  5
$  9 17
$  9 20
$  9 35
$ 10  4
$ 10  7
$ 10  8
$ 10  9
$ 10 15
$ 10 24
$ 11 10
$ 11 13
$ 12 11
$ 12 20
$ 12 23
$ 12 33
$ 13  3
$ 13 13
$ 13 30
$ 13 31
$ 14 11
$ 14 18
$ 14 22
$ 14 26
$ 14 37
$ 15  1
$ 15 12
$ 15 16
$ 15 21
$ 15 22
$ 15 28
$ 15 36
$ 16  2
$ 16 12
$ 16 14
$ 16 19
$ 16 30
$ 17  8
$ 17 10
$ 17 12
$ 17 20
$ 17 23
$ 17 34
$ 18 23
$ 18 24
$ 18 34

